data;


param d:= 100;
param r:=5;
param p:=0.200000;
param M:=1000;
param U:=
         1         1       -3.042954e-02
         2         1       -1.080968e+00
         3         1       -5.481528e-01
         4         1       -1.030807e+00
         5         1        6.557760e-01
         6         1       -2.755983e-01
         7         1        2.397514e-01
         8         1        6.823683e-02
         9         1        1.206317e+00
        10         1       -2.286088e+00
        11         1       -2.429598e+00
        12         1        6.169847e-01
        13         1       -9.570298e-01
        14         1        5.082814e-02
        15         1        8.268868e-01
        16         1       -1.948483e+00
        17         1        6.908010e-01
        18         1       -4.630406e-01
        19         1        3.073824e-01
        20         1        2.865651e-01
        21         1        1.250030e+00
        22         1       -3.050287e-01
        23         1       -1.106741e+00
        24         1        1.341196e+00
        25         1        8.206284e-01
        26         1       -1.712191e+00
        27         1       -7.520275e-01
        28         1       -5.792060e-02
        29         1        1.105859e+00
        30         1       -4.308146e-01
        31         1       -4.011761e-01
        32         1       -8.654776e-01
        33         1        2.718929e-01
        34         1        1.686577e+00
        35         1       -1.040404e+00
        36         1       -1.053763e+00
        37         1        2.041434e+00
        38         1        1.446955e+00
        39         1       -3.598816e-02
        40         1       -4.578229e-01
        41         1        9.641184e-01
        42         1       -7.998190e-01
        43         1        2.943287e-01
        44         1       -7.243126e-01
        45         1        5.761351e-01
        46         1       -9.774810e-02
        47         1        6.254578e-01
        48         1        4.136449e-01
        49         1       -2.809275e-01
        50         1       -8.512063e-01
        51         1       -8.116186e-01
        52         1        8.229321e-02
        53         1        8.499271e-01
        54         1        2.229461e+00
        55         1       -6.090060e-01
        56         1        3.241651e-01
        57         1       -6.493148e-01
        58         1        3.850533e-01
        59         1       -4.092513e-01
        60         1       -1.703281e+00
        61         1       -1.558047e+00
        62         1       -1.086715e+00
        63         1       -8.219097e-01
        64         1       -1.356392e-01
        65         1       -1.390600e+00
        66         1        4.768688e-01
        67         1       -8.495536e-02
        68         1       -2.275218e-01
        69         1        3.862796e-01
        70         1        5.654709e-01
        71         1        9.002629e-01
        72         1       -3.082120e+00
        73         1       -7.116927e-01
        74         1        2.244992e+00
        75         1        1.193109e+00
        76         1        4.410961e-01
        77         1        1.472313e+00
        78         1       -7.857622e-01
        79         1       -1.169547e-01
        80         1       -6.616484e-01
        81         1        3.171180e-02
        82         1        7.752094e-01
        83         1       -2.825879e-01
        84         1       -4.305223e-01
        85         1        8.746846e-02
        86         1        1.829739e+00
        87         1       -8.182842e-01
        88         1        1.232143e+00
        89         1       -3.903080e-01
        90         1        6.295307e-01
        91         1        2.086864e+00
        92         1       -2.504671e-01
        93         1        1.580577e+00
        94         1       -5.145513e-01
        95         1        1.218650e+00
        96         1        1.664214e+00
        97         1        1.473357e+00
        98         1        4.587083e-03
        99         1        1.720384e+00
       100         1       -1.399430e+00
         1         2        2.804766e-01
         2         2       -2.425350e+00
         3         2        5.833199e-01
         4         2       -1.047021e-01
         5         2        6.211549e-01
         6         2        1.361995e+00
         7         2        2.229485e+00
         8         2       -2.599588e-04
         9         2       -1.059313e+00
        10         2        7.005375e-01
        11         2       -5.725512e-01
        12         2       -2.954070e-02
        13         2       -4.003200e-03
        14         2        7.381981e-01
        15         2       -8.443160e-01
        16         2       -2.285450e-01
        17         2       -6.291941e-01
        18         2        1.336851e+00
        19         2        1.017079e+00
        20         2        8.729933e-01
        21         2       -1.844831e-01
        22         2       -7.994268e-01
        23         2        7.571344e-02
        24         2        5.467280e-01
        25         2        9.066043e-01
        26         2        1.803706e+00
        27         2       -1.005416e+00
        28         2       -7.005882e-01
        29         2       -1.715739e+00
        30         2       -3.944311e-01
        31         2        1.536497e+00
        32         2        1.278829e-01
        33         2        1.068165e+00
        34         2       -1.004842e+00
        35         2        8.443837e-01
        36         2       -8.809934e-01
        37         2        9.579548e-01
        38         2        1.589827e-01
        39         2       -7.674952e-01
        40         2       -1.872793e+00
        41         2       -1.122499e+00
        42         2        2.779750e-01
        43         2        4.872409e-01
        44         2       -7.693880e-01
        45         2       -2.456020e-01
        46         2       -2.549120e-01
        47         2       -6.971923e-01
        48         2       -1.038325e+00
        49         2       -1.250559e+00
        50         2        4.303082e-01
        51         2       -2.006155e-01
        52         2        5.530593e-01
        53         2       -1.512716e+00
        54         2        1.632233e+00
        55         2       -6.533209e-01
        56         2        2.910697e+00
        57         2       -5.234745e-01
        58         2       -5.688752e-01
        59         2       -9.699129e-01
        60         2        1.091962e+00
        61         2        4.918659e-01
        62         2       -2.773692e-01
        63         2       -2.623179e-01
        64         2        1.033385e+00
        65         2        2.249654e-01
        66         2       -5.301964e-01
        67         2        1.182353e-01
        68         2       -7.224022e-01
        69         2       -1.752866e+00
        70         2       -1.079793e+00
        71         2        2.432109e+00
        72         2        2.281894e-01
        73         2        6.452890e-01
        74         2       -1.649884e+00
        75         2        3.544461e-01
        76         2       -1.394414e+00
        77         2       -2.397725e-01
        78         2        6.697128e-01
        79         2       -5.709216e-02
        80         2       -9.105224e-01
        81         2        1.135656e+00
        82         2        1.572864e+00
        83         2       -4.969308e-02
        84         2       -8.860882e-02
        85         2        5.134957e-01
        86         2        9.317780e-01
        87         2       -1.189957e-01
        88         2       -8.420971e-01
        89         2       -1.692400e+00
        90         2       -6.249677e-01
        91         2       -1.314117e+00
        92         2       -1.020430e+00
        93         2        4.941542e-01
        94         2       -1.071253e+00
        95         2       -5.858591e-03
        96         2       -1.038463e+00
        97         2       -1.016644e-01
        98         2       -4.430097e-01
        99         2       -2.971528e-01
       100         2       -5.321420e-01
         1         3       -2.950152e-01
         2         3       -2.012394e+00
         3         3        4.183963e-01
         4         3        2.115670e-01
         5         3        1.906426e+00
         6         3        1.433620e+00
         7         3        1.068868e+00
         8         3       -1.949461e+00
         9         3       -4.709979e-01
        10         3       -1.097199e+00
        11         3        2.890422e-01
        12         3        2.984624e-01
        13         3       -1.506441e+00
        14         3       -1.964615e+00
        15         3        8.112230e-02
        16         3       -1.400036e-01
        17         3        5.355913e-01
        18         3       -1.089537e+00
        19         3       -5.962086e-01
        20         3        2.247332e-01
        21         3       -6.459274e-02
        22         3       -3.006603e-01
        23         3       -6.588833e-01
        24         3       -5.030870e-01
        25         3        6.106406e-01
        26         3        7.389242e-01
        27         3       -5.603413e-01
        28         3        7.565926e-01
        29         3       -9.375993e-01
        30         3       -1.426548e+00
        31         3        1.837890e+00
        32         3       -2.613048e-01
        33         3        5.996018e-01
        34         3       -6.147644e-01
        35         3       -8.046434e-01
        36         3       -9.348626e-01
        37         3        1.325172e+00
        38         3       -1.382222e-01
        39         3       -8.559353e-01
        40         3       -1.149369e+00
        41         3        5.650748e-01
        42         3       -5.225244e-04
        43         3        4.151355e-01
        44         3       -5.322141e-01
        45         3        5.889720e-01
        46         3       -3.224368e-01
        47         3       -5.279980e-01
        48         3        2.623407e-01
        49         3        5.453936e-01
        50         3       -1.346039e+00
        51         3        1.496958e+00
        52         3       -1.310375e+00
        53         3        1.835997e+00
        54         3        6.312849e-01
        55         3        8.974349e-01
        56         3       -1.177447e+00
        57         3       -9.026823e-01
        58         3        1.474279e-02
        59         3       -3.832948e-01
        60         3       -3.756657e-01
        61         3        4.916798e-01
        62         3       -9.936347e-01
        63         3       -2.584309e-01
        64         3       -2.344828e-01
        65         3       -1.855320e+00
        66         3        1.565123e+00
        67         3       -3.807997e-01
        68         3        1.194344e-01
        69         3       -4.670871e-01
        70         3       -1.029379e+00
        71         3       -7.134835e-01
        72         3        4.513627e-01
        73         3       -5.645273e-01
        74         3       -8.672858e-01
        75         3       -3.687951e-01
        76         3        1.892262e+00
        77         3        5.097899e-01
        78         3        1.569676e+00
        79         3       -1.248282e+00
        80         3        5.212912e-02
        81         3       -7.879718e-01
        82         3        1.067105e+00
        83         3        6.316337e-02
        84         3       -6.329255e-01
        85         3        1.199652e+00
        86         3       -2.218876e+00
        87         3        1.270285e+00
        88         3       -9.762696e-01
        89         3       -2.525931e-01
        90         3        3.092192e-01
        91         3       -1.812842e+00
        92         3       -9.659098e-01
        93         3       -1.456116e-01
        94         3       -1.034835e+00
        95         3       -7.283290e-01
        96         3        6.162505e-01
        97         3        5.319595e-01
        98         3       -1.007848e+00
        99         3        1.565712e+00
       100         3        6.162611e-01
         1         4        6.389573e-01
         2         4       -2.524905e+00
         3         4        1.523342e+00
         4         4        5.890039e-01
         5         4       -3.913773e-01
         6         4        7.821404e-01
         7         4        5.732975e-01
         8         4       -9.393324e-01
         9         4        7.484770e-01
        10         4        8.289669e-01
        11         4        4.758085e-01
        12         4       -6.627327e-02
        13         4        2.629542e-02
        14         4        3.801920e-01
        15         4        1.013299e-01
        16         4        2.178403e-01
        17         4        3.094612e-01
        18         4        1.459505e-02
        19         4        2.864676e-01
        20         4        7.819567e-01
        21         4        3.469735e-01
        22         4       -8.121046e-01
        23         4       -7.894109e-01
        24         4       -6.974344e-01
        25         4        9.782244e-01
        26         4        9.557495e-02
        27         4       -1.887209e-01
        28         4        8.779646e-01
        29         4       -9.679310e-01
        30         4       -1.015465e+00
        31         4       -5.579844e-01
        32         4        2.152062e-01
        33         4       -1.330255e+00
        34         4       -1.879676e+00
        35         4        1.754689e+00
        36         4        9.254307e-01
        37         4        4.373693e-01
        38         4        1.060059e+00
        39         4       -1.047971e+00
        40         4        1.892906e+00
        41         4        1.001726e-01
        42         4        1.162134e+00
        43         4       -4.218773e-01
        44         4        8.658321e-01
        45         4       -3.317877e-01
        46         4       -3.712062e-01
        47         4        8.588143e-01
        48         4        5.863352e-02
        49         4       -2.175765e-01
        50         4        8.857579e-01
        51         4        1.711262e+00
        52         4        2.776384e-01
        53         4       -9.457566e-01
        54         4        8.368873e-01
        55         4       -8.174182e-01
        56         4        6.966002e-02
        57         4        7.861242e-02
        58         4        7.891482e-01
        59         4        5.248139e-01
        60         4       -5.349186e-03
        61         4       -5.985858e-01
        62         4       -1.150295e+00
        63         4       -2.562973e-01
        64         4       -2.066326e-01
        65         4        1.034085e+00
        66         4        7.136889e-01
        67         4       -4.214478e-01
        68         4        1.384723e+00
        69         4       -2.041424e-01
        70         4        1.434407e-01
        71         4       -5.554003e-01
        72         4       -5.274070e-01
        73         4       -8.530304e-01
        74         4       -4.661011e-01
        75         4       -2.301395e-01
        76         4       -6.273659e-01
        77         4        1.109653e+00
        78         4        1.581618e+00
        79         4       -2.143822e+00
        80         4        5.353842e-01
        81         4       -3.396704e-01
        82         4       -1.246744e+00
        83         4        1.248300e+00
        84         4       -2.865885e-01
        85         4       -1.277612e-01
        86         4        4.413675e-01
        87         4       -8.040754e-01
        88         4       -4.433142e-01
        89         4        6.823191e-01
        90         4       -1.421071e+00
        91         4        9.357805e-01
        92         4        2.609882e-01
        93         4       -2.598373e-01
        94         4        5.495805e-02
        95         4       -6.254778e-01
        96         4        1.219787e+00
        97         4        1.423305e+00
        98         4       -5.866479e-02
        99         4        1.494834e+00
       100         4        7.429407e-02
         1         5       -2.026244e+00
         2         5        4.321699e-01
         3         5        3.014706e-01
         4         5       -3.500872e-02
         5         5       -1.413552e+00
         6         5       -3.827340e-01
         7         5       -1.546629e-01
         8         5        2.491765e-01
         9         5       -6.843035e-01
        10         5       -1.669983e-01
        11         5       -3.149733e-01
        12         5        7.480456e-01
        13         5        4.157005e-01
        14         5        6.989308e-01
        15         5        1.282609e+00
        16         5        5.876591e-01
        17         5       -9.042938e-01
        18         5        2.602682e-02
        19         5       -1.618458e+00
        20         5       -1.002162e+00
        21         5        1.642947e+00
        22         5        8.797873e-01
        23         5       -1.046889e-01
        24         5        1.256747e-01
        25         5       -2.952449e+00
        26         5        2.611128e+00
        27         5       -1.245404e-02
        28         5       -1.035373e+00
        29         5        6.706379e-01
        30         5        1.644618e+00
        31         5        1.660070e-02
        32         5        1.122693e-01
        33         5       -1.625878e+00
        34         5        6.284331e-01
        35         5        9.869301e-01
        36         5       -1.443209e+00
        37         5        1.225894e+00
        38         5       -2.819980e-03
        39         5       -5.013823e-01
        40         5       -8.928759e-01
        41         5        3.585033e-01
        42         5        1.025553e+00
        43         5        4.365810e-01
        44         5       -6.733295e-01
        45         5        9.308989e-01
        46         5       -1.027948e+00
        47         5        2.896875e-01
        48         5        1.486786e-01
        49         5       -7.072298e-01
        50         5       -1.436926e+00
        51         5        1.400981e+00
        52         5       -3.527380e-01
        53         5       -8.807902e-01
        54         5       -1.920963e-01
        55         5        1.619197e-01
        56         5       -2.833671e-01
        57         5       -1.419017e+00
        58         5       -3.668039e-01
        59         5       -7.934912e-01
        60         5       -5.941348e-01
        61         5        7.086659e-01
        62         5        8.272142e-01
        63         5        8.327918e-01
        64         5        3.333665e-01
        65         5       -3.057463e+00
        66         5        7.936025e-01
        67         5       -9.089861e-01
        68         5       -1.064472e+00
        69         5        2.142752e-01
        70         5        1.293822e-01
        71         5       -1.180328e+00
        72         5       -2.654053e-01
        73         5        1.109509e+00
        74         5        1.113242e+00
        75         5        5.442908e-01
        76         5        6.275781e-01
        77         5       -1.066124e+00
        78         5        8.524325e-01
        79         5       -1.819302e+00
        80         5       -7.547179e-01
        81         5        1.709880e+00
        82         5       -4.032078e-01
        83         5        3.510810e-01
        84         5       -2.044292e+00
        85         5        2.723882e-01
        86         5       -4.321794e-01
        87         5        7.621190e-01
        88         5       -3.271450e-01
        89         5        6.603390e-01
        90         5        1.035492e+00
        91         5       -2.126480e+00
        92         5        5.390740e-01
        93         5       -7.818023e-02
        94         5       -2.846123e-01
        95         5        1.618164e-01
        96         5        5.192992e-01
        97         5        6.143416e-01
        98         5       -1.846494e+00
        99         5       -7.470621e-03
       100         5       -4.395598e-01
;

param theta:=
    1        5.814730e-01
    2        6.058870e-01
    3        2.024533e-01
    4       -4.999432e-01
    5       -4.374766e-01
;
param X_true:=
    1        6.606056e-01
    2       -1.433735e+00
    3       -7.736162e-01
    4       -8.982107e-01
    5        1.958633e+00
    6        7.315345e-01
    7        1.488694e+00
    8        5.948683e-03
    9       -1.101376e-01
   10       -1.469491e+00
   11       -1.799170e+00
   12        1.078495e-01
   13       -1.058133e+00
   14       -4.159608e-01
   15       -6.252576e-01
   16       -1.666022e+00
   17        3.685445e-01
   18        3.021067e-01
   19        1.239509e+00
   20        7.895333e-01
   21       -2.906476e-01
   22       -7.017960e-01
   23       -2.899811e-01
   24        1.302776e+00
   25        1.951458e+00
   26       -9.413796e-01
   27       -1.059825e+00
   28       -2.923675e-01
   29       -3.957478e-01
   30       -9.887705e-01
   31        1.340921e+00
   32       -6.370022e-01
   33        2.305081e+00
   34        9.124007e-01
   35       -1.566571e+00
   36       -1.166924e+00
   37        1.280469e+00
   38        3.806186e-01
   39        8.519387e-02
   40       -2.188104e+00
   41       -2.128400e-01
   42       -1.327912e+00
   43        5.710685e-01
   44       -1.132722e+00
   45        6.322892e-02
   46        3.588976e-01
   47       -7.216704e-01
   48       -4.301098e-01
   49       -3.923782e-01
   50       -3.212536e-01
   51       -1.758786e+00
   52        1.341190e-01
   53        8.049428e-01
   54        2.078839e+00
   55       -2.299850e-01
   56        1.803564e+00
   57       -2.964897e-01
   58       -3.508990e-01
   59       -8.179255e-01
   60       -1.419382e-01
   61       -5.174696e-01
   62       -7.890250e-01
   63       -9.270151e-01
   64        4.548712e-01
   65       -2.272025e-01
   66       -4.329308e-01
   67        5.544055e-01
   68       -7.705809e-01
   69       -9.227034e-01
   70       -6.628351e-01
   71        2.646443e+00
   72       -1.183262e+00
   73       -1.965490e-01
   74       -1.230169e-01
   75        7.110846e-01
   76       -1.656261e-01
   77        7.264189e-01
   78       -8.969111e-01
   79        1.512552e+00
   80       -8.640526e-01
   81       -3.278634e-02
   82        2.419775e+00
   83       -9.596908e-01
   84        6.041860e-01
   85        5.479625e-01
   86        1.147859e+00
   87       -2.215885e-01
   88        3.753590e-01
   89       -1.933601e+00
   90        3.078248e-01
   91        5.127570e-01
   92       -1.327867e+00
   93        1.351777e+00
   94       -1.060310e+00
   95        7.997144e-01
   96       -3.735681e-01
   97       -7.634382e-02
   98        3.666890e-01
   99        3.927817e-01
  100       -8.567266e-01
;
param X:=
    1        6.606056e-01
    2       -1.433735e+00
    3       -7.736162e-01
    4       -8.982107e-01
    5        1.958633e+00
    6        7.315345e-01
    7        1.488694e+00
    8        5.948683e-03
    9       -1.101376e-01
   10       -1.469491e+00
   11       -2.287147e-01
   12       -1.440646e+00
   13       -1.058133e+00
   14       -4.159608e-01
   15       -6.252576e-01
   16        1.169508e+00
   17       -4.796858e-01
   18        3.021067e-01
   19        1.239509e+00
   20       -3.006050e-01
   21       -2.906476e-01
   22        7.434301e-01
   23       -2.899811e-01
   24        1.302776e+00
   25        1.951458e+00
   26       -9.413796e-01
   27        1.488477e+00
   28       -2.923675e-01
   29       -3.957478e-01
   30       -9.887705e-01
   31        1.340921e+00
   32       -6.370022e-01
   33        2.305081e+00
   34        9.124007e-01
   35       -1.566571e+00
   36        1.762247e+00
   37        1.280469e+00
   38        3.806186e-01
   39        8.519387e-02
   40       -2.188104e+00
   41       -2.128400e-01
   42       -1.327912e+00
   43        5.710685e-01
   44       -6.521802e-01
   45        1.300793e-02
   46       -7.787695e-01
   47       -7.216704e-01
   48       -4.301098e-01
   49       -3.923782e-01
   50        4.098490e-01
   51       -1.758786e+00
   52        1.341190e-01
   53        8.049428e-01
   54        2.078839e+00
   55       -2.299850e-01
   56        1.803564e+00
   57       -2.964897e-01
   58       -3.508990e-01
   59       -8.179255e-01
   60       -1.419382e-01
   61       -5.174696e-01
   62       -7.890250e-01
   63       -9.270151e-01
   64       -2.717805e+00
   65       -2.272025e-01
   66       -4.329308e-01
   67        5.544055e-01
   68       -7.705809e-01
   69       -9.227034e-01
   70       -6.628351e-01
   71        2.646443e+00
   72       -1.183262e+00
   73       -1.965490e-01
   74       -1.230169e-01
   75        7.110846e-01
   76       -1.656261e-01
   77        7.264189e-01
   78       -8.969111e-01
   79        1.512552e+00
   80       -8.640526e-01
   81       -3.278634e-02
   82       -5.521810e-01
   83        4.474881e-01
   84        1.733431e+00
   85        5.479625e-01
   86        1.147859e+00
   87       -2.215885e-01
   88        3.753590e-01
   89       -1.933601e+00
   90        3.078248e-01
   91        5.127570e-01
   92       -8.032973e-01
   93        2.621582e-01
   94       -1.060310e+00
   95        7.997144e-01
   96        2.202125e-01
   97       -7.634382e-02
   98        3.666890e-01
   99        3.927817e-01
  100       -1.186777e+00
;
param outliervec:=
    1    0
    2    0
    3    0
    4    0
    5    0
    6    0
    7    0
    8    0
    9    0
   10    0
   11    1
   12    1
   13    0
   14    0
   15    0
   16    1
   17    1
   18    0
   19    0
   20    1
   21    0
   22    1
   23    0
   24    0
   25    0
   26    0
   27    1
   28    0
   29    0
   30    0
   31    0
   32    0
   33    0
   34    0
   35    0
   36    1
   37    0
   38    0
   39    0
   40    0
   41    0
   42    0
   43    0
   44    1
   45    1
   46    1
   47    0
   48    0
   49    0
   50    1
   51    0
   52    0
   53    0
   54    0
   55    0
   56    0
   57    0
   58    0
   59    0
   60    0
   61    0
   62    0
   63    0
   64    1
   65    0
   66    0
   67    0
   68    0
   69    0
   70    0
   71    0
   72    0
   73    0
   74    0
   75    0
   76    0
   77    0
   78    0
   79    0
   80    0
   81    0
   82    1
   83    1
   84    1
   85    0
   86    0
   87    0
   88    0
   89    0
   90    0
   91    0
   92    1
   93    1
   94    0
   95    0
   96    1
   97    0
   98    0
   99    0
  100    1
;